25 55
16 57
17 63
5 64
8 52
12 42
7 38
5 25
10 17
5 6
13 13
21 10
30 15
36 16
39 10
46 10
59 15
51 21
48 28
52 33
58 27
61 33
62 42
56 37
52 41
49 49
58 48
57 58
62 63
63 69
52 64
43 67
37 69
27 68
31 62
42 57
37 52
38 46
42 41
45 35
40 30
32 22
27 23
20 26
17 33
25 32
31 32
32 39
30 40
30 48
21 47
25 55
